c turning on binary mode checking
c parsing input formula with 259840 variables and 1039924 clauses
c finished parsing, read 22489623 bytes from proof file
c detected empty clause; start verification via backward checking
c 4643 of 1039924 clauses in core                            
c 3208 of 569019 lemmas in core using 37733 resolution steps
c 0 RAT lemmas in core; 233 redundant literals in core lemmas
s VERIFIED
c verification time: 2.494 seconds
